(declare-const x0 Real)
(assert (<= 8.0 x0))
(declare-const x1 Real)
(assert (<= 43.0 x1))
(declare-const x2 Real)
(assert (<= 3.0 x2))
(declare-const x3 Real)
(assert (<= 0.0 x3))
(declare-const x4 Real)
(assert (<= 0.0 x4))
(declare-const x5 Real)
(assert (<= 0.0 x5))
(declare-const x6 Real)
(assert (<= 0.0 x6))
(declare-const x7 Real)
(assert (<= 0.0 x7))
(declare-const x8 Real)
(assert (<= 0.0 x8))
(declare-const x9 Real)
(assert (<= 0.0 x9))
(declare-const x10 Real)
(assert (<= 0.0 x10))
(declare-const x11 Real)
(assert (<= 0.0 x11))
(declare-const x12 Real)
(assert (<= 0.0 x12))
(declare-const x13 Real)
(assert (<= 0.0 x13))
(declare-const x14 Real)
(assert (<= 0.0 x14))

(assert (let ((.def_0 (+ (* (- 1.0) x0) (* 1.0 x3)))) (and (<= (- 7.0) .def_0)(<= .def_0 6.0))))
(assert (let ((.def_0 (+ (* (- 1.0) x3) (* 1.0 x6)))) (and (<= (- 7.0) .def_0)(<= .def_0 6.0))))
(assert (let ((.def_0 (+ (* (- 1.0) x6) (* 1.0 x9)))) (and (<= (- 7.0) .def_0)(<= .def_0 6.0))))
(assert (let ((.def_0 (+ (* (- 1.0) x9) (* 1.0 x12)))) (and (<= (- 7.0) .def_0)(<= .def_0 6.0))))
(assert (let ((.def_0 (+ (* (- 1.0) x1) (* 1.0 x4)))) (and (<= (- 7.0) .def_0)(<= .def_0 7.0))))
(assert (let ((.def_0 (+ (* (- 1.0) x4) (* 1.0 x7)))) (and (<= (- 7.0) .def_0)(<= .def_0 7.0))))
(assert (let ((.def_0 (+ (* (- 1.0) x7) (* 1.0 x10)))) (and (<= (- 7.0) .def_0)(<= .def_0 7.0))))
(assert (let ((.def_0 (+ (* (- 1.0) x10) (* 1.0 x13)))) (and (<= (- 7.0) .def_0)(<= .def_0 7.0))))
(assert (let ((.def_0 (+ (* (- 1.0) x2) (* 1.0 x5)))) (and (<= (- 7.0) .def_0)(<= .def_0 6.0))))
(assert (let ((.def_0 (+ (* (- 1.0) x5) (* 1.0 x8)))) (and (<= (- 7.0) .def_0)(<= .def_0 6.0))))
(assert (let ((.def_0 (+ (* (- 1.0) x8) (* 1.0 x11)))) (and (<= (- 7.0) .def_0)(<= .def_0 6.0))))
(assert (let ((.def_0 (+ (* (- 1.0) x11) (* 1.0 x14)))) (and (<= (- 7.0) .def_0)(<= .def_0 6.0))))
(assert (<= 60.0 (+ (* 1.0 x0) (* 1.0 x1) (* 1.0 x2))))
(assert (<= 50.0 (+ (* 1.0 x3) (* 1.0 x4) (* 1.0 x5))))
(assert (<= 70.0 (+ (* 1.0 x6) (* 1.0 x7) (* 1.0 x8))))
(assert (<= 85.0 (+ (* 1.0 x9) (* 1.0 x10) (* 1.0 x11))))
(assert (<= 100.0 (+ (* 1.0 x12) (* 1.0 x13) (* 1.0 x14))))

(minimize
	(+ (* 2.300000 x0) (* 1.700000 x1) (* 2.200000 x2) (* 2.300000 x3) (* 1.700000 x4) (* 2.200000 x5) (* 2.300000 x6) (* 1.700000 x7) (* 2.200000 x8) (* 2.300000 x9) (* 1.700000 x10) (* 2.200000 x11) (* 2.300000 x12) (* 1.700000 x13) (* 2.200000 x14) (+ (* 0.000100 (^ x0 2.0)) (* 0.000100 (^ x1 2.0)) (* 0.000150 (^ x2 2.0)) (* 0.000100 (^ x3 2.0)) (* 0.000100 (^ x4 2.0)) (* 0.000150 (^ x5 2.0)) (* 0.000100 (^ x6 2.0)) (* 0.000100 (^ x7 2.0)) (* 0.000150 (^ x8 2.0)) (* 0.000100 (^ x9 2.0)) (* 0.000100 (^ x10 2.0)) (* 0.000150 (^ x11 2.0)) (* 0.000100 (^ x12 2.0)) (* 0.000100 (^ x13 2.0)) (* 0.000150 (^ x14 2.0))))
)
(check-sat)
(get-objectives)
(exit)

